NAME          DCAP_2_4_3_500_SS67
ROWS
 N  OBJ
 L  CON1
 L  CON2
 L  CON3
 L  CON4
 L  CON5
 L  CON6
 L  CON7
 L  CON8
 L  CON9
 L  CON10
 L  CON11
 L  CON12
 E  CON13
 E  CON14
 E  CON15
 E  CON16
 E  CON17
 E  CON18
 E  CON19
 E  CON20
 E  CON21
 E  CON22
 E  CON23
 E  CON24
COLUMNS
    x[1,1]    OBJ       6.180167      CON1      1.000000    
    x[1,1]    CON7      -1.000000     CON8      -1.000000   
    x[1,1]    CON9      -1.000000   
    x[1,2]    OBJ       6.563535      CON2      1.000000    
    x[1,2]    CON8      -1.000000     CON9      -1.000000   
    x[1,3]    OBJ       7.443064      CON3      1.000000    
    x[1,3]    CON9      -1.000000   
    x[2,1]    OBJ       6.732585      CON4      1.000000    
    x[2,1]    CON10     -1.000000     CON11     -1.000000   
    x[2,1]    CON12     -1.000000   
    x[2,2]    OBJ       5.039546      CON5      1.000000    
    x[2,2]    CON11     -1.000000     CON12     -1.000000   
    x[2,3]    OBJ       6.054841      CON6      1.000000    
    x[2,3]    CON12     -1.000000   
    MARKER    'MARKER'                'INTORG'
    u[1,1]    OBJ       48.076654     CON1      -1.000000   
    u[1,2]    OBJ       20.066487     CON2      -1.000000   
    u[1,3]    OBJ       32.230043     CON3      -1.000000   
    u[2,1]    OBJ       49.996186     CON4      -1.000000   
    u[2,2]    OBJ       49.466655     CON5      -1.000000   
    u[2,3]    OBJ       27.484319     CON6      -1.000000   
    y[1,1,1]  OBJ       5.223263      CON7      0.841937    
    y[1,1,1]  CON13     1.000000    
    y[1,1,2]  OBJ       5.282022      CON8      1.399345    
    y[1,1,2]  CON14     1.000000    
    y[1,1,3]  OBJ       8.298356      CON9      1.381697    
    y[1,1,3]  CON15     1.000000    
    y[1,2,1]  OBJ       5.468234      CON7      1.236845    
    y[1,2,1]  CON16     1.000000    
    y[1,2,2]  OBJ       8.931733      CON8      0.671120    
    y[1,2,2]  CON17     1.000000    
    y[1,2,3]  OBJ       7.933845      CON9      0.663394    
    y[1,2,3]  CON18     1.000000    
    y[1,3,1]  OBJ       9.057730      CON7      1.264346    
    y[1,3,1]  CON19     1.000000    
    y[1,3,2]  OBJ       5.869133      CON8      1.434932    
    y[1,3,2]  CON20     1.000000    
    y[1,3,3]  OBJ       9.177515      CON9      1.014607    
    y[1,3,3]  CON21     1.000000    
    y[1,4,1]  OBJ       8.212140      CON7      1.011997    
    y[1,4,1]  CON22     1.000000    
    y[1,4,2]  OBJ       8.689159      CON8      1.197686    
    y[1,4,2]  CON23     1.000000    
    y[1,4,3]  OBJ       6.537671      CON9      1.019085    
    y[1,4,3]  CON24     1.000000    
    y[2,1,1]  OBJ       6.814742      CON10     0.841937    
    y[2,1,1]  CON13     1.000000    
    y[2,1,2]  OBJ       9.175126      CON11     1.399345    
    y[2,1,2]  CON14     1.000000    
    y[2,1,3]  OBJ       6.267716      CON12     1.381697    
    y[2,1,3]  CON15     1.000000    
    y[2,2,1]  OBJ       7.999845      CON10     1.236845    
    y[2,2,1]  CON16     1.000000    
    y[2,2,2]  OBJ       8.540785      CON11     0.671120    
    y[2,2,2]  CON17     1.000000    
    y[2,2,3]  OBJ       5.264621      CON12     0.663394    
    y[2,2,3]  CON18     1.000000    
    y[2,3,1]  OBJ       5.991602      CON10     1.264346    
    y[2,3,1]  CON19     1.000000    
    y[2,3,2]  OBJ       7.989205      CON11     1.434932    
    y[2,3,2]  CON20     1.000000    
    y[2,3,3]  OBJ       5.324848      CON12     1.014607    
    y[2,3,3]  CON21     1.000000    
    y[2,4,1]  OBJ       8.568040      CON10     1.011997    
    y[2,4,1]  CON22     1.000000    
    y[2,4,2]  OBJ       7.011483      CON11     1.197686    
    y[2,4,2]  CON23     1.000000    
    y[2,4,3]  OBJ       8.483519      CON12     1.019085    
    y[2,4,3]  CON24     1.000000    
    z[1,1]    OBJ       818.622798    CON13     1.000000    
    z[1,2]    OBJ       952.424807    CON14     1.000000    
    z[1,3]    OBJ       995.468807    CON15     1.000000    
    z[2,1]    OBJ       693.315433    CON16     1.000000    
    z[2,2]    OBJ       580.236239    CON17     1.000000    
    z[2,3]    OBJ       746.704047    CON18     1.000000    
    z[3,1]    OBJ       733.257043    CON19     1.000000    
    z[3,2]    OBJ       799.038858    CON20     1.000000    
    z[3,3]    OBJ       967.833255    CON21     1.000000    
    z[4,1]    OBJ       788.251200    CON22     1.000000    
    z[4,2]    OBJ       544.452768    CON23     1.000000    
    z[4,3]    OBJ       575.891424    CON24     1.000000    
    MARKER    'MARKER'                 'INTEND'
RHS
    RHS       CON1      -0.000000     CON2      -0.000000   
    RHS       CON3      -0.000000     CON4      -0.000000   
    RHS       CON5      -0.000000     CON6      -0.000000   
    RHS       CON7      -0.000000     CON8      -0.000000   
    RHS       CON9      -0.000000     CON10     -0.000000   
    RHS       CON11     -0.000000     CON12     -0.000000   
    RHS       CON13     1.000000      CON14     1.000000    
    RHS       CON15     1.000000      CON16     1.000000    
    RHS       CON17     1.000000      CON18     1.000000    
    RHS       CON19     1.000000      CON20     1.000000    
    RHS       CON21     1.000000      CON22     1.000000    
    RHS       CON23     1.000000      CON24     1.000000    
BOUNDS
 BV BOUND     u[1,1]  
 BV BOUND     u[1,2]  
 BV BOUND     u[1,3]  
 BV BOUND     u[2,1]  
 BV BOUND     u[2,2]  
 BV BOUND     u[2,3]  
 BV BOUND     y[1,1,1]
 BV BOUND     y[1,1,2]
 BV BOUND     y[1,1,3]
 BV BOUND     y[1,2,1]
 BV BOUND     y[1,2,2]
 BV BOUND     y[1,2,3]
 BV BOUND     y[1,3,1]
 BV BOUND     y[1,3,2]
 BV BOUND     y[1,3,3]
 BV BOUND     y[1,4,1]
 BV BOUND     y[1,4,2]
 BV BOUND     y[1,4,3]
 BV BOUND     y[2,1,1]
 BV BOUND     y[2,1,2]
 BV BOUND     y[2,1,3]
 BV BOUND     y[2,2,1]
 BV BOUND     y[2,2,2]
 BV BOUND     y[2,2,3]
 BV BOUND     y[2,3,1]
 BV BOUND     y[2,3,2]
 BV BOUND     y[2,3,3]
 BV BOUND     y[2,4,1]
 BV BOUND     y[2,4,2]
 BV BOUND     y[2,4,3]
 BV BOUND     z[1,1]  
 BV BOUND     z[1,2]  
 BV BOUND     z[1,3]  
 BV BOUND     z[2,1]  
 BV BOUND     z[2,2]  
 BV BOUND     z[2,3]  
 BV BOUND     z[3,1]  
 BV BOUND     z[3,2]  
 BV BOUND     z[3,3]  
 BV BOUND     z[4,1]  
 BV BOUND     z[4,2]  
 BV BOUND     z[4,3]  
ENDATA
